(set-logic ALL)
(declare-fun i4 () Int)
(declare-fun i1 () Int)
(declare-fun i3 () Int)
(declare-fun it1167 () Int)
(declare-fun it1168 () Int)
(declare-fun i2 () Int)
(declare-fun it1169 () Int)
(declare-fun it1170 () Int)
(declare-fun it1171 () Int)
(declare-fun it1172 () Int)
(declare-fun it1556 () Int)
(declare-fun it1557 () Int)
(declare-fun it1558 () Int)
(declare-fun it1559 () Int)
(declare-fun it1560 () Int)
(declare-fun it1561 () Int)
(declare-fun it57 () Int)
(declare-fun it2513 () Int)
(declare-fun it2514 () Int)
(declare-fun it2515 () Int)
(declare-fun it2516 () Int)
(declare-fun it2517 () Int)
(declare-fun it2518 () Int)
(declare-fun it2523 () Int)
(declare-fun it2524 () Int)
(declare-fun it2525 () Int)
(declare-fun it2526 () Int)
(declare-fun it2527 () Int)
(declare-fun it2528 () Int)
(declare-fun it540 () Int)
(declare-fun it2531 () Int)
(declare-fun it2532 () Int)
(declare-fun it2533 () Int)
(declare-fun it2534 () Int)
(declare-fun it2535 () Int)
(declare-fun it2536 () Int)
(declare-fun it2540 () Int)
(declare-fun it2541 () Int)
(declare-fun it2542 () Int)
(declare-fun it2543 () Int)
(declare-fun it2544 () Int)
(declare-fun it2545 () Int)
(declare-fun it129 () Int)
(assert (and (>= (+ i3 (- 2)) 0) (= (+ i1 (- 1)) 0) (>= (+ i4 (- 2)) 0)))
(assert (= (+ it1167 (- 3)) 0))
(assert (= (+ (* i2 (- 1)) it1168 (- 2)) 0))
(assert (= (+ (* i3 (- 1)) it1169 1) 0))
(assert (= (+ (* i4 (- 1)) it1170) 0))
(assert (= (+ it1171 (* i3 (- 1)) 1) 0))
(assert (= (+ (* i3 (- 2)) it1172 2) 0))
(assert (and (>= (+ (* it1172 (- 1)) it1170) 0)
     (>= (+ it1169 (- 1)) 0)
     (>= (+ it1169 (- 2)) 0)
     (>= (+ (* it1170 (- 1)) 4) 0)
     (>= (+ it1172 (* it1170 (- 1))) 0)
     (>= (+ (* it1167 (- 1)) 3) 0)
     (>= (+ it1170 (- 2)) 0)
     (>= (+ it1167 (- 3)) 0)
     (>= 0 0)
     (<= (+ (* it1172 (- 1)) (* it1169 2) (- 2)) 0)))
(assert (= (+ it1556 (* it1167 (- 1))) 0))
(assert (= (+ (* it1168 (- 1)) it1557 (* it1169 (- 3)) 3) 0))
(assert (= (+ it1558 (- 1)) 0))
(assert (= (+ it1559 (* it1170 (- 1))) 0))
(assert (= (+ it1560 (- 1)) 0))
(assert (= (+ it1561 (- 2)) 0))
(assert (let ((a!1 (+ (+ 0 it1559)
              (* (exp 2 (+ it57 (- 1))) (+ 0 it1561) (+ 0 (- 1)))))
      (a!2 (>= (+ (+ it1559 (* it1561 (- 1))) (- 1)) 0)))
  (and (>= (+ it57 (- 1)) 0)
       (>= (+ a!1 (+ 0 (- 1))) (+ 0 0))
       (>= (+ it1561 (- 1)) 0)
       (>= (+ it1559 (* it1561 (- 1))) 0)
       (>= (+ (* it1556 (- 1)) 3) 0)
       a!2
       (>= (+ it1556 (- 3)) 0)
       (>= a!1 (+ 0 0)))))
(assert (= (+ (* it1556 (- 1)) it2513) 0))
(assert (= (+ (* it1557 (- 1)) it2514 (* it57 (- 1))) 0))
(assert (= (+ it2515 (* it1558 (- 1))) 0))
(assert (= (+ it2516 (* it1559 (- 1))) 0))
(assert (let ((a!1 (+ (+ 0 it2517)
              (* (exp 2 (+ it57 (- 1))) (+ 0 it1561) (+ 0 (- 1))))))
  (= a!1 (+ 0 0))))
(assert (= (+ (+ 0 it2518) (* (exp 2 it57) (+ 0 it1561) (+ 0 (- 1))))
   (+ 0 0)))
(assert (and (= (+ it2516 (* it2518 (- 1))) 0) (= (+ it2513 (- 3)) 0)))
(assert (= (+ it2523 (- 4)) 0))
(assert (= (+ (* it2514 (- 1)) it2524 (- 1)) 0))
(assert (= (+ (* it2515 (- 1)) it2525) 0))
(assert (= (+ (* it2516 (- 1)) it2526) 0))
(assert (= (+ (* it2517 (- 1)) it2527) 0))
(assert (= (+ (* it2518 (- 1)) it2528) 0))
(assert (let ((a!1 (>= (+ (+ it2526 (* it540 (- 1))) (* it2525 (- 2)) (- 1)) 0))
      (a!2 (>= (+ (+ it2526 (* it540 (- 1))) (- 2)) 0))
      (a!3 (>= (+ (+ it2526 (* it2525 (- 2))) (- 2)) 0))
      (a!4 (>= (+ (+ it2526 (* it2525 (- 2))) (- 1)) 0)))
  (and (>= (+ it2526 (- 3)) 0)
       (>= (+ it540 (- 1)) 0)
       (>= (+ it2525 (- 1)) 0)
       a!1
       a!2
       a!3
       a!4
       (>= (+ (* it2523 (- 1)) 4) 0)
       (>= (+ (* it2525 (- 1)) 1) 0)
       (>= (+ it2523 (- 4)) 0)
       (>= (+ it2526 (- 2)) 0))))
(assert (= (+ (* it2523 (- 1)) it2531) 0))
(assert (= (+ it2532 (* it2524 (- 1)) (* it540 (- 3))) 0))
(assert (= (+ it2533 (* it2525 (- 1))) 0))
(assert (= (+ (* it2526 (- 1)) it540 it2534) 0))
(assert (= (+ it2535 (* it2525 (- 1))) 0))
(assert (= (+ it2536 (* it2525 (- 2)) (- 1)) 0))
(assert (and (= (+ it2531 (- 4)) 0)
     (>= (+ it2534 (- 3)) 0)
     (= (+ it2533 (- 1)) 0)
     (>= (+ it2534 (- 2)) 0)))
(assert (= (+ it2540 (- 3)) 0))
(assert (= (+ (* it2532 (- 1)) it2541 (- 2)) 0))
(assert (= (+ it2542 (* it2533 (- 1))) 0))
(assert (= (+ it2543 (* it2534 (- 1)) 1) 0))
(assert (= (+ (* it2533 (- 1)) it2544) 0))
(assert (= (+ it2545 (* it2533 (- 2))) 0))
(assert (let ((a!1 (+ (* (+ 0 it2545) (exp 2 (+ it129 (- 1))) (+ 0 (- 1)))
              (* (exp 2 it129) (+ 0 (- 1)))
              (+ 0 it2543)))
      (a!2 (>= (+ (+ (* it2545 (- 1)) it2543) (- 1)) 0)))
  (and (>= (+ it2545 (- 1)) 0)
       (>= (+ (* it2545 (- 1)) it2543) 0)
       (>= (+ a!1 (+ 0 2)) (+ 0 0))
       (>= (+ it129 (- 1)) 0)
       a!2
       (>= (+ (* it2540 (- 1)) 3) 0)
       (>= (+ it2540 (- 3)) 0)
       (>= (+ a!1 (+ 0 1)) (+ 0 0)))))
(check-sat)
